letting n =  10
letting blocks =  [[1, 2], [1, 6], [1, 7], [1, 9], [1, 10], [2, 2], [2, 3], [2, 5], [2, 6], [2, 7], [2, 8], [3, 1], [3, 4], [3, 5], [3, 6], [3, 8], [3, 9], [4, 1], [4, 3], [4, 4], [4, 5], [4, 9], [5, 2], [5, 3], [5, 4], [5, 6], [5, 7], [5, 8], [6, 1], [6, 3], [6, 4], [6, 5], [6, 7], [6, 10], [7, 1], [7, 2], [7, 4], [7, 6], [7, 7], [7, 10], [8, 1], [8, 3], [8, 5], [8, 6], [8, 9], [8, 10], [9, 3], [9, 4], [9, 8], [9, 10], [10, 1], [10, 2], [10, 5], [10, 7], [10, 9], [10, 10]]
